c User generated cnf file
p cnf 13 77
-8 10 8 0 
-7 13 13 0 
12 -7 12 0 
-1 6 5 0 
-13 10 1 0 
-11 11 6 0 
11 -6 3 0 
4 2 -9 0 
10 12 -4 0 
5 -7 7 0 
11 2 -7 0 
-13 5 3 0 
6 3 -10 0 
-7 8 13 0 
-9 10 13 0 
-2 8 3 0 
8 -3 4 0 
13 1 -3 0 
7 11 -8 0 
-6 1 1 0 
-9 10 9 0 
-2 9 8 0 
-1 5 1 0 
5 -4 3 0 
4 10 -12 0 
-8 12 13 0 
9 6 -11 0 
-3 5 2 0 
2 11 -6 0 
6 4 -7 0 
3 8 -12 0 
-7 12 12 0 
7 10 -12 0 
1 -3 1 0 
-12 5 9 0 
12 11 -12 0 
10 -2 8 0 
10 -10 9 0 
3 -2 4 0 
2 -5 8 0 
-12 7 1 0 
-8 6 11 0 
-11 2 9 0 
8 -5 8 0 
-4 2 11 0 
1 -7 3 0 
7 9 -1 0 
-12 13 5 0 
3 -12 1 0 
7 3 -13 0 
2 -4 3 0 
5 13 -6 0 
8 13 -1 0 
8 -3 1 0 
3 12 -4 0 
-4 3 1 0 
13 2 -8 0 
-6 1 8 0 
6 11 -12 0 
6 -4 9 0 
5 9 -11 0 
5 3 -7 0 
5 -13 9 0 
11 9 -12 0 
10 -6 1 0 
10 12 -9 0 
-2 11 2 0 
10 -9 6 0 
-9 4 9 0 
-10 13 11 0 
7 10 -6 0 
8 -11 2 0 
12 12 -4 0 
-13 6 8 0 
3 3 -7 0 
-2 6 3 0 
6 -12 6 0 
